Maximize
  0.00263316521723453 Z_491_0_0 + 0.00195813060100444 Z_491_0_1
   + 0.697601808910262 Z_491_0_2 + 0.00339814262521842 Z_491_0_3
   + 0.1944087526462807 Z_491_0_4
Subject To
 constraint1_4910: Z_491_0_0 + Z_491_0_1 + Z_491_0_2 + Z_491_0_3
   + Z_491_0_4 <= 1
 constraint2_4910: Z_491_0_0 <= 1
 constraint2_4911: Z_491_0_1 <= 1
 constraint2_4912: Z_491_0_2 <= 1
 constraint2_4913: Z_491_0_3 <= 1
Bounds
Binaries
 Z_491_0_0 Z_491_0_1 Z_491_0_2 Z_491_0_3 Z_491_0_4
End
